
Gurobi 6.0.4 (mac64) logging started Mon Sep 14 19:38:49 2015


Gurobi 6.0.4 (mac64) logging started Mon Sep 14 19:46:37 2015


Gurobi 6.0.4 (mac64) logging started Mon Sep 14 19:47:29 2015


Gurobi 6.0.4 (mac64) logging started Mon Sep 14 19:48:15 2015


Gurobi 6.0.4 (mac64) logging started Mon Sep 14 19:48:56 2015


Gurobi 6.0.4 (mac64) logging started Mon Sep 14 19:52:36 2015

